problem_generation/data/GISP/train/er_n=61_m=1081_p=0.60_SET2_setparam=100.00_alpha=0.50_370.lp
maximize
OBJ:100x0 + 100x1 + 100x2 + 100x3 + 100x4 + 100x5 + 100x6 + 100x7 + 100x8 + 100x9 + 100x10 + 100x11 + 100x12 + 100x13 + 100x14 + 100x15 + 100x16 + 100x17 + 100x18 + 100x19 + 100x20 + 100x21 + 100x22 + 100x23 + 100x24 + 100x25 + 100x26 + 100x27 + 100x28 + 100x29 + 100x30 + 100x31 + 100x32 + 100x33 + 100x34 + 100x35 + 100x36 + 100x37 + 100x38 + 100x39 + 100x40 + 100x41 + 100x42 + 100x43 + 100x44 + 100x45 + 100x46 + 100x47 + 100x48 + 100x49 + 100x50 + 100x51 + 100x52 + 100x53 + 100x54 + 100x55 + 100x56 + 100x57 + 100x58 + 100x59 + 100x60 - y7_17 - y47_53 - y26_30 - y7_26 - y28_58 - y29_32 - y0_5 - y48_54 - y41_51 - y2_32 - y25_34 - y2_41 - y3_6 - y25_52 - y2_59 - y3_24 - y43_60 - y3_42 - y14_51 - y36_48 - y47_48 - y17_53 - y28_53 - y18_30 - y5_60 - y21_32 - y6_43 - y29_45 - y40_45 - y10_22 - y2_36 - y25_38 - y10_49 - y44_51 - y3_19 - y32_55 - y43_55 - y14_28 - y35_60 - y55_56 - y17_39 - y7_16 - y36_52 - y28_48 - y21_36 - y6_56 - y2_22 - y33_37 - y2_31 - y10_44 - y25_42 - y3_5 - y32_50 - y22_27 - y35_46 - y32_59 - y13_55 - y35_55 - y16_51 - y7_11 - y9_30 - y36_47 - y5_41 - y17_43 - y28_43 - y36_56 - y9_57 - y21_22 - y29_35 - y21_31 - y39_48 - y39_57 - y25_28 - y10_39 - y12_58 - y2_35 - y35_41 - y32_54 - y1_48 - y24_50 - y35_50 - y16_46 - y13_59 - y24_59 - y35_59 - y17_20 - y5_27 - y36_42 - y9_25 - y5_36 - y36_51 - y5_45 - y17_47 - y21_26 - y42_58 - y39_43 - y2_3 - y10_16 - y39_52 - y20_48 - y31_48 - y10_25 - y20_57 - y31_57 - y54_59 - y23_53 - y2_30 - y32_49 - y16_32 - y43_49 - y13_45 - y32_58 - y43_58 - y1_52 - y16_50 - y9_11 - y17_42 - y9_38 - y27_55 - y21_30 - y30_60 - y20_34 - y2_7 - y23_39 - y12_57 - y32_35 - y32_44 - y35_49 - y1_56 - y46_55 - y5_44 - y27_50 - y50_52 - y19_46 - y42_57 - y11_51 - y39_42 - y12_25 - y2_11 - y4_30 - y39_60 - y12_43 - y23_52 - y4_48 - y1_42 - y13_44 - y1_51 - y5_12 - y17_23 - y15_53 - y26_53 - y38_55 - y5_39 - y18_58 - y42_43 - y19_50 - y0_46 - y30_59 - y20_24 - y0_55 - y11_55 - y12_20 - y4_25 - y12_38 - y20_51 - y23_47 - y53_57 - y16_17 - y24_30 - y37_58 - y16_35 - y1_46 - y46_54 - y9_14 - y38_50 - y5_25 - y15_57 - y26_57 - y49_59 - y27_31 - y19_36 - y8_54 - y30_54 - y0_50 - y12_15 - y11_59 - y41_60 - y52_60 - y20_37 - y31_37 - y1_14 - y1_23 - y16_21 - y45_57 - y3_51 - y15_43 - y46_58 - y57_58 - y26_52 - y7_57 - y18_57 - y19_22 - y11_18 - y8_31 - y19_31 - y19_40 - y27_53 - y8_49 - y30_58 - y41_55 - y52_55 - y20_32 - y23_28 - y25_56 - y4_33 - y34_43 - y1_18 - y3_46 - y3_55 - y15_20 - y15_29 - y7_25 - y15_38 - y26_38 - y26_47 - y38_49 - y7_52 - y30_35 - y11_31 - y8_44 - y30_44 - y0_40 - y52_59 - y2_58 - y45_47 - y14_41 - y34_56 - y14_50 - y15_24 - y18_20 - y7_29 - y7_38 - y18_38 - y7_47 - y18_47 - y18_56 - y48_57 - y11_26 - y21_58 - y4_5 - y4_14 - y10_48 - y2_44 - y22_40 - y3_36 - y45_51 - y3_45 - y22_58 - y18_33 - y11_12 - y0_21 - y29_57 - y21_53 - y11_30 - y10_34 - y41_49 - y52_58 - y2_39 - y44_54 - y25_59 - y3_49 - y14_49 - y18_19 - y7_28 - y18_28 - y17_60 - y18_37 - y29_43 - y6_50 - y11_16 - y6_59 - y25_27 - y33_49 - y44_49 - y3_8 - y2_52 - y32_53 - y3_35 - y3_44 - y36_50 - y28_46 - y7_23 - y18_23 - y36_59 - y17_55 - y47_59 - y6_36 - y48_51 - y6_45 - y29_47 - y21_43 - y10_24 - y10_33 - y25_40 - y22_25 - y2_56 - y3_21 - y43_57 - y13_53 - y35_53 - y1_60 - y16_58 - y17_32 - y55_58 - y5_48 - y5_57 - y6_22 - y6_40 - y6_49 - y21_47 - y6_58 - y10_28 - y25_26 - y32_34 - y2_42 - y3_7 - y43_52 - y24_57 - y17_18 - y36_40 - y9_23 - y5_34 - y9_32 - y17_45 - y36_58 - y47_58 - y6_26 - y9_59 - y6_44 - y10_14 - y39_50 - y31_46 - y2_28 - y43_47 - y51_60 - y24_43 - y43_56 - y16_39 - y24_52 - y35_52 - y28_40 - y9_36 - y28_49 - y6_21 - y9_54 - y50_55 - y6_30 - y39_45 - y31_41 - y10_18 - y39_54 - y20_50 - y12_46 - y23_55 - y13_20 - y13_29 - y16_34 - y24_47 - y16_43 - y16_52 - y17_26 - y9_22 - y6_7 - y42_46 - y21_23 - y8_53 - y19_53 - y20_27 - y0_58 - y39_40 - y31_36 - y12_32 - y23_41 - y54_56 - y4_37 - y4_46 - y23_59 - y13_24 - y53_60 - y16_20 - y32_46 - y35_42 - y1_49 - y24_51 - y46_48 - y1_58 - y5_19 - y17_21 - y46_57 - y9_17 - y15_60 - y6_20 - y27_52 - y50_54 - y42_50 - y19_57 - y30_57 - y42_59 - y20_31 - y39_44 - y2_4 - y4_23 - y20_49 - y4_32 - y23_45 - y1_8 - y4_41 - y23_54 - y1_17 - y4_50 - y1_26 - y13_28 - y24_28 - y16_24 - y56_60 - y24_37 - y35_37 - y38_39 - y5_23 - y9_21 - y38_57 - y49_57 - y7_51 - y18_51 - y7_60 - y8_34 - y19_34 - y0_30 - y11_39 - y20_35 - y4_18 - y31_35 - y20_44 - y4_36 - y12_49 - y23_49 - y34_55 - y38_43 - y46_56 - y7_46 - y8_20 - y27_33 - y8_38 - y30_38 - y42_49 - y8_56 - y30_56 - y12_17 - y41_53 - y20_30 - y31_39 - y33_58 - y23_35 - y1_7 - y4_40 - y1_16 - y34_50 - y45_50 - y3_53 - y26_27 - y7_41 - y49_56 - y7_50 - y0_11 - y18_59 - y8_24 - y19_24 - y27_37 - y0_20 - y8_33 - y0_29 - y0_38 - y11_47 - y41_48 - y12_21 - y25_49 - y1_2 - y22_43 - y3_39 - y14_39 - y22_52 - y45_54 - y14_48 - y37_50 - y37_59 - y15_22 - y15_31 - y7_27 - y26_40 - y7_36 - y8_10 - y15_58 - y26_58 - y27_32 - y0_15 - y29_60 - y8_37 - y11_42 - y10_46 - y44_57 - y25_53 - y22_47 - y45_49 - y3_43 - y14_43 - y45_58 - y3_52 - y15_35 - y7_31 - y18_31 - y18_49 - y48_50 - y0_19 - y21_60 - y52_56 - y4_16 - y33_52 - y22_24 - y3_20 - y14_29 - y22_42 - y7_8
 Subject to
C1: x0+x1 <=1 
C2: x0+x4 <=1 
C3: x0+x5-y0_5 <=1 
C4: x0+x7 <=1 
C5: x0+x9 <=1 
C6: x0+x11-y0_11 <=1 
C7: x0+x14 <=1 
C8: x0+x15-y0_15 <=1 
C9: x0+x16 <=1 
C10: x0+x17 <=1 
C11: x0+x19-y0_19 <=1 
C12: x0+x20-y0_20 <=1 
C13: x0+x21-y0_21 <=1 
C14: x0+x26 <=1 
C15: x0+x28 <=1 
C16: x0+x29-y0_29 <=1 
C17: x0+x30-y0_30 <=1 
C18: x0+x37 <=1 
C19: x0+x38-y0_38 <=1 
C20: x0+x40-y0_40 <=1 
C21: x0+x41 <=1 
C22: x0+x44 <=1 
C23: x0+x45 <=1 
C24: x0+x46-y0_46 <=1 
C25: x0+x50-y0_50 <=1 
C26: x0+x51 <=1 
C27: x0+x55-y0_55 <=1 
C28: x0+x57 <=1 
C29: x0+x58-y0_58 <=1 
C30: x0+x59 <=1 
C31: x1+x2-y1_2 <=1 
C32: x1+x3 <=1 
C33: x1+x4 <=1 
C34: x1+x6 <=1 
C35: x1+x7-y1_7 <=1 
C36: x1+x8-y1_8 <=1 
C37: x1+x10 <=1 
C38: x1+x13 <=1 
C39: x1+x14-y1_14 <=1 
C40: x1+x15 <=1 
C41: x1+x16-y1_16 <=1 
C42: x1+x17-y1_17 <=1 
C43: x1+x18-y1_18 <=1 
C44: x1+x20 <=1 
C45: x1+x23-y1_23 <=1 
C46: x1+x26-y1_26 <=1 
C47: x1+x27 <=1 
C48: x1+x28 <=1 
C49: x1+x35 <=1 
C50: x1+x36 <=1 
C51: x1+x37 <=1 
C52: x1+x38 <=1 
C53: x1+x42-y1_42 <=1 
C54: x1+x44 <=1 
C55: x1+x45 <=1 
C56: x1+x46-y1_46 <=1 
C57: x1+x48-y1_48 <=1 
C58: x1+x49-y1_49 <=1 
C59: x1+x51-y1_51 <=1 
C60: x1+x52-y1_52 <=1 
C61: x1+x56-y1_56 <=1 
C62: x1+x57 <=1 
C63: x1+x58-y1_58 <=1 
C64: x1+x60-y1_60 <=1 
C65: x2+x3-y2_3 <=1 
C66: x2+x4-y2_4 <=1 
C67: x2+x6 <=1 
C68: x2+x7-y2_7 <=1 
C69: x2+x11-y2_11 <=1 
C70: x2+x15 <=1 
C71: x2+x17 <=1 
C72: x2+x21 <=1 
C73: x2+x22-y2_22 <=1 
C74: x2+x24 <=1 
C75: x2+x25 <=1 
C76: x2+x28-y2_28 <=1 
C77: x2+x29 <=1 
C78: x2+x30-y2_30 <=1 
C79: x2+x31-y2_31 <=1 
C80: x2+x32-y2_32 <=1 
C81: x2+x33 <=1 
C82: x2+x34 <=1 
C83: x2+x35-y2_35 <=1 
C84: x2+x36-y2_36 <=1 
C85: x2+x38 <=1 
C86: x2+x39-y2_39 <=1 
C87: x2+x41-y2_41 <=1 
C88: x2+x42-y2_42 <=1 
C89: x2+x44-y2_44 <=1 
C90: x2+x46 <=1 
C91: x2+x47 <=1 
C92: x2+x49 <=1 
C93: x2+x51 <=1 
C94: x2+x52-y2_52 <=1 
C95: x2+x54 <=1 
C96: x2+x55 <=1 
C97: x2+x56-y2_56 <=1 
C98: x2+x58-y2_58 <=1 
C99: x2+x59-y2_59 <=1 
C100: x3+x5-y3_5 <=1 
C101: x3+x6-y3_6 <=1 
C102: x3+x7-y3_7 <=1 
C103: x3+x8-y3_8 <=1 
C104: x3+x10 <=1 
C105: x3+x11 <=1 
C106: x3+x12 <=1 
C107: x3+x16 <=1 
C108: x3+x17 <=1 
C109: x3+x18 <=1 
C110: x3+x19-y3_19 <=1 
C111: x3+x20-y3_20 <=1 
C112: x3+x21-y3_21 <=1 
C113: x3+x23 <=1 
C114: x3+x24-y3_24 <=1 
C115: x3+x26 <=1 
C116: x3+x28 <=1 
C117: x3+x30 <=1 
C118: x3+x31 <=1 
C119: x3+x32 <=1 
C120: x3+x33 <=1 
C121: x3+x34 <=1 
C122: x3+x35-y3_35 <=1 
C123: x3+x36-y3_36 <=1 
C124: x3+x37 <=1 
C125: x3+x39-y3_39 <=1 
C126: x3+x40 <=1 
C127: x3+x41 <=1 
C128: x3+x42-y3_42 <=1 
C129: x3+x43-y3_43 <=1 
C130: x3+x44-y3_44 <=1 
C131: x3+x45-y3_45 <=1 
C132: x3+x46-y3_46 <=1 
C133: x3+x49-y3_49 <=1 
C134: x3+x51-y3_51 <=1 
C135: x3+x52-y3_52 <=1 
C136: x3+x53-y3_53 <=1 
C137: x3+x54 <=1 
C138: x3+x55-y3_55 <=1 
C139: x3+x57 <=1 
C140: x3+x60 <=1 
C141: x4+x5-y4_5 <=1 
C142: x4+x6 <=1 
C143: x4+x7 <=1 
C144: x4+x8 <=1 
C145: x4+x13 <=1 
C146: x4+x14-y4_14 <=1 
C147: x4+x16-y4_16 <=1 
C148: x4+x17 <=1 
C149: x4+x18-y4_18 <=1 
C150: x4+x19 <=1 
C151: x4+x20 <=1 
C152: x4+x22 <=1 
C153: x4+x23-y4_23 <=1 
C154: x4+x25-y4_25 <=1 
C155: x4+x28 <=1 
C156: x4+x29 <=1 
C157: x4+x30-y4_30 <=1 
C158: x4+x32-y4_32 <=1 
C159: x4+x33-y4_33 <=1 
C160: x4+x35 <=1 
C161: x4+x36-y4_36 <=1 
C162: x4+x37-y4_37 <=1 
C163: x4+x38 <=1 
C164: x4+x40-y4_40 <=1 
C165: x4+x41-y4_41 <=1 
C166: x4+x43 <=1 
C167: x4+x45 <=1 
C168: x4+x46-y4_46 <=1 
C169: x4+x48-y4_48 <=1 
C170: x4+x50-y4_50 <=1 
C171: x4+x51 <=1 
C172: x4+x52 <=1 
C173: x4+x55 <=1 
C174: x4+x56 <=1 
C175: x4+x58 <=1 
C176: x5+x7 <=1 
C177: x5+x8 <=1 
C178: x5+x12-y5_12 <=1 
C179: x5+x13 <=1 
C180: x5+x14 <=1 
C181: x5+x15 <=1 
C182: x5+x17 <=1 
C183: x5+x19-y5_19 <=1 
C184: x5+x20 <=1 
C185: x5+x22 <=1 
C186: x5+x23-y5_23 <=1 
C187: x5+x24 <=1 
C188: x5+x25-y5_25 <=1 
C189: x5+x27-y5_27 <=1 
C190: x5+x28 <=1 
C191: x5+x29 <=1 
C192: x5+x30 <=1 
C193: x5+x34-y5_34 <=1 
C194: x5+x36-y5_36 <=1 
C195: x5+x39-y5_39 <=1 
C196: x5+x41-y5_41 <=1 
C197: x5+x42 <=1 
C198: x5+x44-y5_44 <=1 
C199: x5+x45-y5_45 <=1 
C200: x5+x46 <=1 
C201: x5+x48-y5_48 <=1 
C202: x5+x52 <=1 
C203: x5+x56 <=1 
C204: x5+x57-y5_57 <=1 
C205: x5+x58 <=1 
C206: x5+x60-y5_60 <=1 
C207: x6+x7-y6_7 <=1 
C208: x6+x9 <=1 
C209: x6+x17 <=1 
C210: x6+x18 <=1 
C211: x6+x19 <=1 
C212: x6+x20-y6_20 <=1 
C213: x6+x21-y6_21 <=1 
C214: x6+x22-y6_22 <=1 
C215: x6+x24 <=1 
C216: x6+x26-y6_26 <=1 
C217: x6+x30-y6_30 <=1 
C218: x6+x33 <=1 
C219: x6+x34 <=1 
C220: x6+x36-y6_36 <=1 
C221: x6+x40-y6_40 <=1 
C222: x6+x41 <=1 
C223: x6+x42 <=1 
C224: x6+x43-y6_43 <=1 
C225: x6+x44-y6_44 <=1 
C226: x6+x45-y6_45 <=1 
C227: x6+x47 <=1 
C228: x6+x48 <=1 
C229: x6+x49-y6_49 <=1 
C230: x6+x50-y6_50 <=1 
C231: x6+x51 <=1 
C232: x6+x53 <=1 
C233: x6+x56-y6_56 <=1 
C234: x6+x58-y6_58 <=1 
C235: x6+x59-y6_59 <=1 
C236: x7+x8-y7_8 <=1 
C237: x7+x10 <=1 
C238: x7+x11-y7_11 <=1 
C239: x7+x12 <=1 
C240: x7+x13 <=1 
C241: x7+x14 <=1 
C242: x7+x16-y7_16 <=1 
C243: x7+x17-y7_17 <=1 
C244: x7+x23-y7_23 <=1 
C245: x7+x25-y7_25 <=1 
C246: x7+x26-y7_26 <=1 
C247: x7+x27-y7_27 <=1 
C248: x7+x28-y7_28 <=1 
C249: x7+x29-y7_29 <=1 
C250: x7+x31-y7_31 <=1 
C251: x7+x32 <=1 
C252: x7+x33 <=1 
C253: x7+x34 <=1 
C254: x7+x36-y7_36 <=1 
C255: x7+x38-y7_38 <=1 
C256: x7+x41-y7_41 <=1 
C257: x7+x45 <=1 
C258: x7+x46-y7_46 <=1 
C259: x7+x47-y7_47 <=1 
C260: x7+x50-y7_50 <=1 
C261: x7+x51-y7_51 <=1 
C262: x7+x52-y7_52 <=1 
C263: x7+x56 <=1 
C264: x7+x57-y7_57 <=1 
C265: x7+x60-y7_60 <=1 
C266: x8+x10-y8_10 <=1 
C267: x8+x12 <=1 
C268: x8+x14 <=1 
C269: x8+x19 <=1 
C270: x8+x20-y8_20 <=1 
C271: x8+x21 <=1 
C272: x8+x23 <=1 
C273: x8+x24-y8_24 <=1 
C274: x8+x25 <=1 
C275: x8+x26 <=1 
C276: x8+x27 <=1 
C277: x8+x31-y8_31 <=1 
C278: x8+x32 <=1 
C279: x8+x33-y8_33 <=1 
C280: x8+x34-y8_34 <=1 
C281: x8+x35 <=1 
C282: x8+x37-y8_37 <=1 
C283: x8+x38-y8_38 <=1 
C284: x8+x39 <=1 
C285: x8+x41 <=1 
C286: x8+x42 <=1 
C287: x8+x43 <=1 
C288: x8+x44-y8_44 <=1 
C289: x8+x47 <=1 
C290: x8+x48 <=1 
C291: x8+x49-y8_49 <=1 
C292: x8+x53-y8_53 <=1 
C293: x8+x54-y8_54 <=1 
C294: x8+x56-y8_56 <=1 
C295: x8+x59 <=1 
C296: x8+x60 <=1 
C297: x9+x10 <=1 
C298: x9+x11-y9_11 <=1 
C299: x9+x13 <=1 
C300: x9+x14-y9_14 <=1 
C301: x9+x15 <=1 
C302: x9+x16 <=1 
C303: x9+x17-y9_17 <=1 
C304: x9+x18 <=1 
C305: x9+x20 <=1 
C306: x9+x21-y9_21 <=1 
C307: x9+x22-y9_22 <=1 
C308: x9+x23-y9_23 <=1 
C309: x9+x24 <=1 
C310: x9+x25-y9_25 <=1 
C311: x9+x26 <=1 
C312: x9+x27 <=1 
C313: x9+x30-y9_30 <=1 
C314: x9+x32-y9_32 <=1 
C315: x9+x33 <=1 
C316: x9+x36-y9_36 <=1 
C317: x9+x38-y9_38 <=1 
C318: x9+x40 <=1 
C319: x9+x43 <=1 
C320: x9+x44 <=1 
C321: x9+x45 <=1 
C322: x9+x47 <=1 
C323: x9+x53 <=1 
C324: x9+x54-y9_54 <=1 
C325: x9+x56 <=1 
C326: x9+x57-y9_57 <=1 
C327: x9+x59-y9_59 <=1 
C328: x10+x14-y10_14 <=1 
C329: x10+x15 <=1 
C330: x10+x16-y10_16 <=1 
C331: x10+x18-y10_18 <=1 
C332: x10+x19 <=1 
C333: x10+x20 <=1 
C334: x10+x22-y10_22 <=1 
C335: x10+x24-y10_24 <=1 
C336: x10+x25-y10_25 <=1 
C337: x10+x26 <=1 
C338: x10+x27 <=1 
C339: x10+x28-y10_28 <=1 
C340: x10+x30 <=1 
C341: x10+x32 <=1 
C342: x10+x33-y10_33 <=1 
C343: x10+x34-y10_34 <=1 
C344: x10+x35 <=1 
C345: x10+x36 <=1 
C346: x10+x38 <=1 
C347: x10+x39-y10_39 <=1 
C348: x10+x41 <=1 
C349: x10+x44-y10_44 <=1 
C350: x10+x46-y10_46 <=1 
C351: x10+x47 <=1 
C352: x10+x48-y10_48 <=1 
C353: x10+x49-y10_49 <=1 
C354: x10+x51 <=1 
C355: x10+x53 <=1 
C356: x10+x56 <=1 
C357: x11+x12-y11_12 <=1 
C358: x11+x15 <=1 
C359: x11+x16-y11_16 <=1 
C360: x11+x18-y11_18 <=1 
C361: x11+x24 <=1 
C362: x11+x25 <=1 
C363: x11+x26-y11_26 <=1 
C364: x11+x27 <=1 
C365: x11+x28 <=1 
C366: x11+x30-y11_30 <=1 
C367: x11+x31-y11_31 <=1 
C368: x11+x32 <=1 
C369: x11+x33 <=1 
C370: x11+x35 <=1 
C371: x11+x37 <=1 
C372: x11+x38 <=1 
C373: x11+x39-y11_39 <=1 
C374: x11+x40 <=1 
C375: x11+x42-y11_42 <=1 
C376: x11+x44 <=1 
C377: x11+x45 <=1 
C378: x11+x47-y11_47 <=1 
C379: x11+x49 <=1 
C380: x11+x51-y11_51 <=1 
C381: x11+x53 <=1 
C382: x11+x55-y11_55 <=1 
C383: x11+x56 <=1 
C384: x11+x57 <=1 
C385: x11+x59-y11_59 <=1 
C386: x11+x60 <=1 
C387: x12+x13 <=1 
C388: x12+x15-y12_15 <=1 
C389: x12+x17-y12_17 <=1 
C390: x12+x20-y12_20 <=1 
C391: x12+x21-y12_21 <=1 
C392: x12+x25-y12_25 <=1 
C393: x12+x28 <=1 
C394: x12+x31 <=1 
C395: x12+x32-y12_32 <=1 
C396: x12+x34 <=1 
C397: x12+x36 <=1 
C398: x12+x38-y12_38 <=1 
C399: x12+x39 <=1 
C400: x12+x41 <=1 
C401: x12+x43-y12_43 <=1 
C402: x12+x46-y12_46 <=1 
C403: x12+x47 <=1 
C404: x12+x49-y12_49 <=1 
C405: x12+x50 <=1 
C406: x12+x55 <=1 
C407: x12+x56 <=1 
C408: x12+x57-y12_57 <=1 
C409: x12+x58-y12_58 <=1 
C410: x13+x19 <=1 
C411: x13+x20-y13_20 <=1 
C412: x13+x21 <=1 
C413: x13+x24-y13_24 <=1 
C414: x13+x27 <=1 
C415: x13+x28-y13_28 <=1 
C416: x13+x29-y13_29 <=1 
C417: x13+x30 <=1 
C418: x13+x35 <=1 
C419: x13+x37 <=1 
C420: x13+x38 <=1 
C421: x13+x39 <=1 
C422: x13+x41 <=1 
C423: x13+x43 <=1 
C424: x13+x44-y13_44 <=1 
C425: x13+x45-y13_45 <=1 
C426: x13+x47 <=1 
C427: x13+x49 <=1 
C428: x13+x50 <=1 
C429: x13+x51 <=1 
C430: x13+x52 <=1 
C431: x13+x53-y13_53 <=1 
C432: x13+x55-y13_55 <=1 
C433: x13+x57 <=1 
C434: x13+x58 <=1 
C435: x13+x59-y13_59 <=1 
C436: x14+x15 <=1 
C437: x14+x19 <=1 
C438: x14+x21 <=1 
C439: x14+x22 <=1 
C440: x14+x25 <=1 
C441: x14+x26 <=1 
C442: x14+x28-y14_28 <=1 
C443: x14+x29-y14_29 <=1 
C444: x14+x31 <=1 
C445: x14+x33 <=1 
C446: x14+x35 <=1 
C447: x14+x38 <=1 
C448: x14+x39-y14_39 <=1 
C449: x14+x41-y14_41 <=1 
C450: x14+x42 <=1 
C451: x14+x43-y14_43 <=1 
C452: x14+x44 <=1 
C453: x14+x47 <=1 
C454: x14+x48-y14_48 <=1 
C455: x14+x49-y14_49 <=1 
C456: x14+x50-y14_50 <=1 
C457: x14+x51-y14_51 <=1 
C458: x14+x52 <=1 
C459: x14+x56 <=1 
C460: x14+x58 <=1 
C461: x15+x16 <=1 
C462: x15+x18 <=1 
C463: x15+x19 <=1 
C464: x15+x20-y15_20 <=1 
C465: x15+x22-y15_22 <=1 
C466: x15+x24-y15_24 <=1 
C467: x15+x27 <=1 
C468: x15+x28 <=1 
C469: x15+x29-y15_29 <=1 
C470: x15+x30 <=1 
C471: x15+x31-y15_31 <=1 
C472: x15+x33 <=1 
C473: x15+x35-y15_35 <=1 
C474: x15+x37 <=1 
C475: x15+x38-y15_38 <=1 
C476: x15+x40 <=1 
C477: x15+x43-y15_43 <=1 
C478: x15+x45 <=1 
C479: x15+x46 <=1 
C480: x15+x53-y15_53 <=1 
C481: x15+x55 <=1 
C482: x15+x56 <=1 
C483: x15+x57-y15_57 <=1 
C484: x15+x58-y15_58 <=1 
C485: x15+x59 <=1 
C486: x15+x60-y15_60 <=1 
C487: x16+x17-y16_17 <=1 
C488: x16+x18 <=1 
C489: x16+x19 <=1 
C490: x16+x20-y16_20 <=1 
C491: x16+x21-y16_21 <=1 
C492: x16+x23 <=1 
C493: x16+x24-y16_24 <=1 
C494: x16+x25 <=1 
C495: x16+x27 <=1 
C496: x16+x30 <=1 
C497: x16+x32-y16_32 <=1 
C498: x16+x33 <=1 
C499: x16+x34-y16_34 <=1 
C500: x16+x35-y16_35 <=1 
C501: x16+x36 <=1 
C502: x16+x38 <=1 
C503: x16+x39-y16_39 <=1 
C504: x16+x40 <=1 
C505: x16+x41 <=1 
C506: x16+x42 <=1 
C507: x16+x43-y16_43 <=1 
C508: x16+x44 <=1 
C509: x16+x45 <=1 
C510: x16+x46-y16_46 <=1 
C511: x16+x48 <=1 
C512: x16+x50-y16_50 <=1 
C513: x16+x51-y16_51 <=1 
C514: x16+x52-y16_52 <=1 
C515: x16+x54 <=1 
C516: x16+x58-y16_58 <=1 
C517: x16+x59 <=1 
C518: x17+x18-y17_18 <=1 
C519: x17+x19 <=1 
C520: x17+x20-y17_20 <=1 
C521: x17+x21-y17_21 <=1 
C522: x17+x23-y17_23 <=1 
C523: x17+x24 <=1 
C524: x17+x26-y17_26 <=1 
C525: x17+x27 <=1 
C526: x17+x30 <=1 
C527: x17+x32-y17_32 <=1 
C528: x17+x34 <=1 
C529: x17+x36 <=1 
C530: x17+x38 <=1 
C531: x17+x39-y17_39 <=1 
C532: x17+x41 <=1 
C533: x17+x42-y17_42 <=1 
C534: x17+x43-y17_43 <=1 
C535: x17+x44 <=1 
C536: x17+x45-y17_45 <=1 
C537: x17+x47-y17_47 <=1 
C538: x17+x48 <=1 
C539: x17+x53-y17_53 <=1 
C540: x17+x55-y17_55 <=1 
C541: x17+x58 <=1 
C542: x17+x59 <=1 
C543: x17+x60-y17_60 <=1 
C544: x18+x19-y18_19 <=1 
C545: x18+x20-y18_20 <=1 
C546: x18+x21 <=1 
C547: x18+x23-y18_23 <=1 
C548: x18+x24 <=1 
C549: x18+x27 <=1 
C550: x18+x28-y18_28 <=1 
C551: x18+x29 <=1 
C552: x18+x30-y18_30 <=1 
C553: x18+x31-y18_31 <=1 
C554: x18+x33-y18_33 <=1 
C555: x18+x35 <=1 
C556: x18+x37-y18_37 <=1 
C557: x18+x38-y18_38 <=1 
C558: x18+x39 <=1 
C559: x18+x44 <=1 
C560: x18+x46 <=1 
C561: x18+x47-y18_47 <=1 
C562: x18+x49-y18_49 <=1 
C563: x18+x51-y18_51 <=1 
C564: x18+x52 <=1 
C565: x18+x55 <=1 
C566: x18+x56-y18_56 <=1 
C567: x18+x57-y18_57 <=1 
C568: x18+x58-y18_58 <=1 
C569: x18+x59-y18_59 <=1 
C570: x19+x21 <=1 
C571: x19+x22-y19_22 <=1 
C572: x19+x23 <=1 
C573: x19+x24-y19_24 <=1 
C574: x19+x25 <=1 
C575: x19+x27 <=1 
C576: x19+x28 <=1 
C577: x19+x31-y19_31 <=1 
C578: x19+x34-y19_34 <=1 
C579: x19+x35 <=1 
C580: x19+x36-y19_36 <=1 
C581: x19+x39 <=1 
C582: x19+x40-y19_40 <=1 
C583: x19+x42 <=1 
C584: x19+x44 <=1 
C585: x19+x46-y19_46 <=1 
C586: x19+x48 <=1 
C587: x19+x49 <=1 
C588: x19+x50-y19_50 <=1 
C589: x19+x51 <=1 
C590: x19+x52 <=1 
C591: x19+x53-y19_53 <=1 
C592: x19+x57-y19_57 <=1 
C593: x20+x21 <=1 
C594: x20+x22 <=1 
C595: x20+x23 <=1 
C596: x20+x24-y20_24 <=1 
C597: x20+x27-y20_27 <=1 
C598: x20+x28 <=1 
C599: x20+x30-y20_30 <=1 
C600: x20+x31-y20_31 <=1 
C601: x20+x32-y20_32 <=1 
C602: x20+x34-y20_34 <=1 
C603: x20+x35-y20_35 <=1 
C604: x20+x36 <=1 
C605: x20+x37-y20_37 <=1 
C606: x20+x40 <=1 
C607: x20+x41 <=1 
C608: x20+x42 <=1 
C609: x20+x44-y20_44 <=1 
C610: x20+x46 <=1 
C611: x20+x47 <=1 
C612: x20+x48-y20_48 <=1 
C613: x20+x49-y20_49 <=1 
C614: x20+x50-y20_50 <=1 
C615: x20+x51-y20_51 <=1 
C616: x20+x52 <=1 
C617: x20+x57-y20_57 <=1 
C618: x20+x59 <=1 
C619: x21+x22-y21_22 <=1 
C620: x21+x23-y21_23 <=1 
C621: x21+x26-y21_26 <=1 
C622: x21+x27 <=1 
C623: x21+x30-y21_30 <=1 
C624: x21+x31-y21_31 <=1 
C625: x21+x32-y21_32 <=1 
C626: x21+x36-y21_36 <=1 
C627: x21+x37 <=1 
C628: x21+x38 <=1 
C629: x21+x41 <=1 
C630: x21+x43-y21_43 <=1 
C631: x21+x44 <=1 
C632: x21+x46 <=1 
C633: x21+x47-y21_47 <=1 
C634: x21+x51 <=1 
C635: x21+x52 <=1 
C636: x21+x53-y21_53 <=1 
C637: x21+x55 <=1 
C638: x21+x56 <=1 
C639: x21+x58-y21_58 <=1 
C640: x21+x60-y21_60 <=1 
C641: x22+x24-y22_24 <=1 
C642: x22+x25-y22_25 <=1 
C643: x22+x27-y22_27 <=1 
C644: x22+x32 <=1 
C645: x22+x34 <=1 
C646: x22+x40-y22_40 <=1 
C647: x22+x42-y22_42 <=1 
C648: x22+x43-y22_43 <=1 
C649: x22+x44 <=1 
C650: x22+x46 <=1 
C651: x22+x47-y22_47 <=1 
C652: x22+x48 <=1 
C653: x22+x51 <=1 
C654: x22+x52-y22_52 <=1 
C655: x22+x57 <=1 
C656: x22+x58-y22_58 <=1 
C657: x23+x24 <=1 
C658: x23+x28-y23_28 <=1 
C659: x23+x29 <=1 
C660: x23+x31 <=1 
C661: x23+x35-y23_35 <=1 
C662: x23+x36 <=1 
C663: x23+x37 <=1 
C664: x23+x39-y23_39 <=1 
C665: x23+x40 <=1 
C666: x23+x41-y23_41 <=1 
C667: x23+x45-y23_45 <=1 
C668: x23+x46 <=1 
C669: x23+x47-y23_47 <=1 
C670: x23+x48 <=1 
C671: x23+x49-y23_49 <=1 
C672: x23+x50 <=1 
C673: x23+x51 <=1 
C674: x23+x52-y23_52 <=1 
C675: x23+x53-y23_53 <=1 
C676: x23+x54-y23_54 <=1 
C677: x23+x55-y23_55 <=1 
C678: x23+x58 <=1 
C679: x23+x59-y23_59 <=1 
C680: x23+x60 <=1 
C681: x24+x25 <=1 
C682: x24+x26 <=1 
C683: x24+x27 <=1 
C684: x24+x28-y24_28 <=1 
C685: x24+x30-y24_30 <=1 
C686: x24+x37-y24_37 <=1 
C687: x24+x39 <=1 
C688: x24+x42 <=1 
C689: x24+x43-y24_43 <=1 
C690: x24+x44 <=1 
C691: x24+x45 <=1 
C692: x24+x46 <=1 
C693: x24+x47-y24_47 <=1 
C694: x24+x50-y24_50 <=1 
C695: x24+x51-y24_51 <=1 
C696: x24+x52-y24_52 <=1 
C697: x24+x53 <=1 
C698: x24+x54 <=1 
C699: x24+x55 <=1 
C700: x24+x57-y24_57 <=1 
C701: x24+x59-y24_59 <=1 
C702: x25+x26-y25_26 <=1 
C703: x25+x27-y25_27 <=1 
C704: x25+x28-y25_28 <=1 
C705: x25+x29 <=1 
C706: x25+x30 <=1 
C707: x25+x31 <=1 
C708: x25+x32 <=1 
C709: x25+x33 <=1 
C710: x25+x34-y25_34 <=1 
C711: x25+x38-y25_38 <=1 
C712: x25+x40-y25_40 <=1 
C713: x25+x42-y25_42 <=1 
C714: x25+x43 <=1 
C715: x25+x44 <=1 
C716: x25+x46 <=1 
C717: x25+x47 <=1 
C718: x25+x48 <=1 
C719: x25+x49-y25_49 <=1 
C720: x25+x52-y25_52 <=1 
C721: x25+x53-y25_53 <=1 
C722: x25+x55 <=1 
C723: x25+x56-y25_56 <=1 
C724: x25+x57 <=1 
C725: x25+x58 <=1 
C726: x25+x59-y25_59 <=1 
C727: x26+x27-y26_27 <=1 
C728: x26+x29 <=1 
C729: x26+x30-y26_30 <=1 
C730: x26+x34 <=1 
C731: x26+x35 <=1 
C732: x26+x36 <=1 
C733: x26+x38-y26_38 <=1 
C734: x26+x39 <=1 
C735: x26+x40-y26_40 <=1 
C736: x26+x47-y26_47 <=1 
C737: x26+x52-y26_52 <=1 
C738: x26+x53-y26_53 <=1 
C739: x26+x56 <=1 
C740: x26+x57-y26_57 <=1 
C741: x26+x58-y26_58 <=1 
C742: x26+x59 <=1 
C743: x27+x28 <=1 
C744: x27+x31-y27_31 <=1 
C745: x27+x32-y27_32 <=1 
C746: x27+x33-y27_33 <=1 
C747: x27+x34 <=1 
C748: x27+x35 <=1 
C749: x27+x36 <=1 
C750: x27+x37-y27_37 <=1 
C751: x27+x42 <=1 
C752: x27+x43 <=1 
C753: x27+x46 <=1 
C754: x27+x50-y27_50 <=1 
C755: x27+x51 <=1 
C756: x27+x52-y27_52 <=1 
C757: x27+x53-y27_53 <=1 
C758: x27+x54 <=1 
C759: x27+x55-y27_55 <=1 
C760: x27+x56 <=1 
C761: x27+x57 <=1 
C762: x27+x58 <=1 
C763: x27+x60 <=1 
C764: x28+x31 <=1 
C765: x28+x32 <=1 
C766: x28+x33 <=1 
C767: x28+x38 <=1 
C768: x28+x39 <=1 
C769: x28+x40-y28_40 <=1 
C770: x28+x41 <=1 
C771: x28+x43-y28_43 <=1 
C772: x28+x44 <=1 
C773: x28+x45 <=1 
C774: x28+x46-y28_46 <=1 
C775: x28+x48-y28_48 <=1 
C776: x28+x49-y28_49 <=1 
C777: x28+x51 <=1 
C778: x28+x52 <=1 
C779: x28+x53-y28_53 <=1 
C780: x28+x56 <=1 
C781: x28+x57 <=1 
C782: x28+x58-y28_58 <=1 
C783: x28+x59 <=1 
C784: x29+x32-y29_32 <=1 
C785: x29+x33 <=1 
C786: x29+x35-y29_35 <=1 
C787: x29+x37 <=1 
C788: x29+x40 <=1 
C789: x29+x41 <=1 
C790: x29+x43-y29_43 <=1 
C791: x29+x45-y29_45 <=1 
C792: x29+x47-y29_47 <=1 
C793: x29+x48 <=1 
C794: x29+x49 <=1 
C795: x29+x52 <=1 
C796: x29+x55 <=1 
C797: x29+x57-y29_57 <=1 
C798: x29+x59 <=1 
C799: x29+x60-y29_60 <=1 
C800: x30+x31 <=1 
C801: x30+x34 <=1 
C802: x30+x35-y30_35 <=1 
C803: x30+x37 <=1 
C804: x30+x38-y30_38 <=1 
C805: x30+x39 <=1 
C806: x30+x41 <=1 
C807: x30+x43 <=1 
C808: x30+x44-y30_44 <=1 
C809: x30+x49 <=1 
C810: x30+x51 <=1 
C811: x30+x52 <=1 
C812: x30+x53 <=1 
C813: x30+x54-y30_54 <=1 
C814: x30+x55 <=1 
C815: x30+x56-y30_56 <=1 
C816: x30+x57-y30_57 <=1 
C817: x30+x58-y30_58 <=1 
C818: x30+x59-y30_59 <=1 
C819: x30+x60-y30_60 <=1 
C820: x31+x34 <=1 
C821: x31+x35-y31_35 <=1 
C822: x31+x36-y31_36 <=1 
C823: x31+x37-y31_37 <=1 
C824: x31+x38 <=1 
C825: x31+x39-y31_39 <=1 
C826: x31+x40 <=1 
C827: x31+x41-y31_41 <=1 
C828: x31+x42 <=1 
C829: x31+x43 <=1 
C830: x31+x45 <=1 
C831: x31+x46-y31_46 <=1 
C832: x31+x48-y31_48 <=1 
C833: x31+x49 <=1 
C834: x31+x52 <=1 
C835: x31+x57-y31_57 <=1 
C836: x31+x59 <=1 
C837: x31+x60 <=1 
C838: x32+x34-y32_34 <=1 
C839: x32+x35-y32_35 <=1 
C840: x32+x37 <=1 
C841: x32+x38 <=1 
C842: x32+x39 <=1 
C843: x32+x40 <=1 
C844: x32+x42 <=1 
C845: x32+x43 <=1 
C846: x32+x44-y32_44 <=1 
C847: x32+x46-y32_46 <=1 
C848: x32+x47 <=1 
C849: x32+x48 <=1 
C850: x32+x49-y32_49 <=1 
C851: x32+x50-y32_50 <=1 
C852: x32+x53-y32_53 <=1 
C853: x32+x54-y32_54 <=1 
C854: x32+x55-y32_55 <=1 
C855: x32+x56 <=1 
C856: x32+x58-y32_58 <=1 
C857: x32+x59-y32_59 <=1 
C858: x33+x34 <=1 
C859: x33+x37-y33_37 <=1 
C860: x33+x40 <=1 
C861: x33+x41 <=1 
C862: x33+x46 <=1 
C863: x33+x48 <=1 
C864: x33+x49-y33_49 <=1 
C865: x33+x51 <=1 
C866: x33+x52-y33_52 <=1 
C867: x33+x53 <=1 
C868: x33+x55 <=1 
C869: x33+x56 <=1 
C870: x33+x57 <=1 
C871: x33+x58-y33_58 <=1 
C872: x33+x60 <=1 
C873: x34+x40 <=1 
C874: x34+x43-y34_43 <=1 
C875: x34+x46 <=1 
C876: x34+x48 <=1 
C877: x34+x50-y34_50 <=1 
C878: x34+x51 <=1 
C879: x34+x54 <=1 
C880: x34+x55-y34_55 <=1 
C881: x34+x56-y34_56 <=1 
C882: x34+x59 <=1 
C883: x35+x36 <=1 
C884: x35+x37-y35_37 <=1 
C885: x35+x38 <=1 
C886: x35+x41-y35_41 <=1 
C887: x35+x42-y35_42 <=1 
C888: x35+x43 <=1 
C889: x35+x46-y35_46 <=1 
C890: x35+x47 <=1 
C891: x35+x49-y35_49 <=1 
C892: x35+x50-y35_50 <=1 
C893: x35+x52-y35_52 <=1 
C894: x35+x53-y35_53 <=1 
C895: x35+x54 <=1 
C896: x35+x55-y35_55 <=1 
C897: x35+x57 <=1 
C898: x35+x59-y35_59 <=1 
C899: x35+x60-y35_60 <=1 
C900: x36+x37 <=1 
C901: x36+x38 <=1 
C902: x36+x39 <=1 
C903: x36+x40-y36_40 <=1 
C904: x36+x41 <=1 
C905: x36+x42-y36_42 <=1 
C906: x36+x45 <=1 
C907: x36+x46 <=1 
C908: x36+x47-y36_47 <=1 
C909: x36+x48-y36_48 <=1 
C910: x36+x50-y36_50 <=1 
C911: x36+x51-y36_51 <=1 
C912: x36+x52-y36_52 <=1 
C913: x36+x54 <=1 
C914: x36+x55 <=1 
C915: x36+x56-y36_56 <=1 
C916: x36+x58-y36_58 <=1 
C917: x36+x59-y36_59 <=1 
C918: x37+x38 <=1 
C919: x37+x41 <=1 
C920: x37+x42 <=1 
C921: x37+x43 <=1 
C922: x37+x47 <=1 
C923: x37+x50-y37_50 <=1 
C924: x37+x51 <=1 
C925: x37+x53 <=1 
C926: x37+x56 <=1 
C927: x37+x58-y37_58 <=1 
C928: x37+x59-y37_59 <=1 
C929: x37+x60 <=1 
C930: x38+x39-y38_39 <=1 
C931: x38+x43-y38_43 <=1 
C932: x38+x44 <=1 
C933: x38+x47 <=1 
C934: x38+x49-y38_49 <=1 
C935: x38+x50-y38_50 <=1 
C936: x38+x51 <=1 
C937: x38+x53 <=1 
C938: x38+x55-y38_55 <=1 
C939: x38+x56 <=1 
C940: x38+x57-y38_57 <=1 
C941: x38+x60 <=1 
C942: x39+x40-y39_40 <=1 
C943: x39+x42-y39_42 <=1 
C944: x39+x43-y39_43 <=1 
C945: x39+x44-y39_44 <=1 
C946: x39+x45-y39_45 <=1 
C947: x39+x46 <=1 
C948: x39+x47 <=1 
C949: x39+x48-y39_48 <=1 
C950: x39+x50-y39_50 <=1 
C951: x39+x52-y39_52 <=1 
C952: x39+x53 <=1 
C953: x39+x54-y39_54 <=1 
C954: x39+x55 <=1 
C955: x39+x57-y39_57 <=1 
C956: x39+x59 <=1 
C957: x39+x60-y39_60 <=1 
C958: x40+x41 <=1 
C959: x40+x44 <=1 
C960: x40+x45-y40_45 <=1 
C961: x40+x46 <=1 
C962: x40+x50 <=1 
C963: x40+x51 <=1 
C964: x40+x54 <=1 
C965: x40+x56 <=1 
C966: x40+x57 <=1 
C967: x40+x58 <=1 
C968: x40+x59 <=1 
C969: x41+x44 <=1 
C970: x41+x48-y41_48 <=1 
C971: x41+x49-y41_49 <=1 
C972: x41+x51-y41_51 <=1 
C973: x41+x53-y41_53 <=1 
C974: x41+x54 <=1 
C975: x41+x55-y41_55 <=1 
C976: x41+x57 <=1 
C977: x41+x58 <=1 
C978: x41+x60-y41_60 <=1 
C979: x42+x43-y42_43 <=1 
C980: x42+x46-y42_46 <=1 
C981: x42+x49-y42_49 <=1 
C982: x42+x50-y42_50 <=1 
C983: x42+x53 <=1 
C984: x42+x57-y42_57 <=1 
C985: x42+x58-y42_58 <=1 
C986: x42+x59-y42_59 <=1 
C987: x43+x46 <=1 
C988: x43+x47-y43_47 <=1 
C989: x43+x48 <=1 
C990: x43+x49-y43_49 <=1 
C991: x43+x51 <=1 
C992: x43+x52-y43_52 <=1 
C993: x43+x54 <=1 
C994: x43+x55-y43_55 <=1 
C995: x43+x56-y43_56 <=1 
C996: x43+x57-y43_57 <=1 
C997: x43+x58-y43_58 <=1 
C998: x43+x59 <=1 
C999: x43+x60-y43_60 <=1 
C1000: x44+x45 <=1 
C1001: x44+x48 <=1 
C1002: x44+x49-y44_49 <=1 
C1003: x44+x51-y44_51 <=1 
C1004: x44+x52 <=1 
C1005: x44+x53 <=1 
C1006: x44+x54-y44_54 <=1 
C1007: x44+x56 <=1 
C1008: x44+x57-y44_57 <=1 
C1009: x45+x46 <=1 
C1010: x45+x47-y45_47 <=1 
C1011: x45+x49-y45_49 <=1 
C1012: x45+x50-y45_50 <=1 
C1013: x45+x51-y45_51 <=1 
C1014: x45+x54-y45_54 <=1 
C1015: x45+x57-y45_57 <=1 
C1016: x45+x58-y45_58 <=1 
C1017: x46+x48-y46_48 <=1 
C1018: x46+x50 <=1 
C1019: x46+x51 <=1 
C1020: x46+x54-y46_54 <=1 
C1021: x46+x55-y46_55 <=1 
C1022: x46+x56-y46_56 <=1 
C1023: x46+x57-y46_57 <=1 
C1024: x46+x58-y46_58 <=1 
C1025: x47+x48-y47_48 <=1 
C1026: x47+x50 <=1 
C1027: x47+x52 <=1 
C1028: x47+x53-y47_53 <=1 
C1029: x47+x57 <=1 
C1030: x47+x58-y47_58 <=1 
C1031: x47+x59-y47_59 <=1 
C1032: x48+x50-y48_50 <=1 
C1033: x48+x51-y48_51 <=1 
C1034: x48+x54-y48_54 <=1 
C1035: x48+x57-y48_57 <=1 
C1036: x48+x58 <=1 
C1037: x48+x59 <=1 
C1038: x49+x50 <=1 
C1039: x49+x51 <=1 
C1040: x49+x53 <=1 
C1041: x49+x54 <=1 
C1042: x49+x56-y49_56 <=1 
C1043: x49+x57-y49_57 <=1 
C1044: x49+x59-y49_59 <=1 
C1045: x50+x52-y50_52 <=1 
C1046: x50+x53 <=1 
C1047: x50+x54-y50_54 <=1 
C1048: x50+x55-y50_55 <=1 
C1049: x50+x56 <=1 
C1050: x50+x59 <=1 
C1051: x50+x60 <=1 
C1052: x51+x54 <=1 
C1053: x51+x57 <=1 
C1054: x51+x58 <=1 
C1055: x51+x59 <=1 
C1056: x51+x60-y51_60 <=1 
C1057: x52+x53 <=1 
C1058: x52+x55-y52_55 <=1 
C1059: x52+x56-y52_56 <=1 
C1060: x52+x58-y52_58 <=1 
C1061: x52+x59-y52_59 <=1 
C1062: x52+x60-y52_60 <=1 
C1063: x53+x56 <=1 
C1064: x53+x57-y53_57 <=1 
C1065: x53+x58 <=1 
C1066: x53+x60-y53_60 <=1 
C1067: x54+x55 <=1 
C1068: x54+x56-y54_56 <=1 
C1069: x54+x57 <=1 
C1070: x54+x59-y54_59 <=1 
C1071: x54+x60 <=1 
C1072: x55+x56-y55_56 <=1 
C1073: x55+x57 <=1 
C1074: x55+x58-y55_58 <=1 
C1075: x55+x59 <=1 
C1076: x55+x60 <=1 
C1077: x56+x59 <=1 
C1078: x56+x60-y56_60 <=1 
C1079: x57+x58-y57_58 <=1 
C1080: x57+x60 <=1 
C1081: x59+x60 <=1 

binary
x0
x1
x2
x3
x4
x5
x6
x7
x8
x9
x10
x11
x12
x13
x14
x15
x16
x17
x18
x19
x20
x21
x22
x23
x24
x25
x26
x27
x28
x29
x30
x31
x32
x33
x34
x35
x36
x37
x38
x39
x40
x41
x42
x43
x44
x45
x46
x47
x48
x49
x50
x51
x52
x53
x54
x55
x56
x57
x58
x59
x60
