problem_generation/data/GISP/train/er_n=61_m=1081_p=0.60_SET2_setparam=100.00_alpha=0.50_370.sol
objective value:                                 1180
x1                                                  1 	(obj:100)
x7                                                  1 	(obj:100)
x9                                                  1 	(obj:100)
x11                                                 1 	(obj:100)
x21                                                 1 	(obj:100)
x22                                                 1 	(obj:100)
x29                                                 1 	(obj:100)
x31                                                 1 	(obj:100)
x39                                                 1 	(obj:100)
x50                                                 1 	(obj:100)
x54                                                 1 	(obj:100)
x58                                                 1 	(obj:100)
y7_11                                               1 	(obj:-1)
y21_22                                              1 	(obj:-1)
y21_31                                              1 	(obj:-1)
y9_11                                               1 	(obj:-1)
y11_31                                              1 	(obj:-1)
y7_29                                               1 	(obj:-1)
y21_58                                              1 	(obj:-1)
y22_58                                              1 	(obj:-1)
y39_50                                              1 	(obj:-1)
y9_54                                               1 	(obj:-1)
y39_54                                              1 	(obj:-1)
y9_22                                               1 	(obj:-1)
y1_58                                               1 	(obj:-1)
y50_54                                              1 	(obj:-1)
y9_21                                               1 	(obj:-1)
y11_39                                              1 	(obj:-1)
y31_39                                              1 	(obj:-1)
y1_7                                                1 	(obj:-1)
y7_50                                               1 	(obj:-1)
y7_31                                               1 	(obj:-1)
